Clp0006I 0  Obj 0 Primal inf 999.9999 (1000) Dual inf 6883504 (250000)
Clp0006I 200  Obj -4178268 Primal inf 305121 (1000)
Clp0006I 400  Obj -1436251 Primal inf 109905 (1000)
Clp0006I 600  Obj -25835 Primal inf 12095 (992)
Clp0006I 702  Obj -25042 Primal inf 15532 (992)
Clp0006I 801  Obj -25042 Primal inf 14450 (992)
Clp0006I 891  Obj -25042 Primal inf 17384 (990)
Clp0006I 991  Obj -25042 Primal inf 18132 (991)
Clp0006I 1080  Obj -25042 Primal inf 30892 (981)
Clp0006I 1174  Obj -25042 Primal inf 44786 (982)
Clp0006I 1270  Obj -25042 Primal inf 33223 (987)
Clp0006I 1366  Obj -25042 Primal inf 37494 (984)
Clp0006I 1465  Obj -25042 Primal inf 30045 (984)
Clp0006I 1580  Obj -25042 Primal inf 23229 (984)
Clp0006I 1694  Obj -25042 Primal inf 33488 (986)
Clp0006I 1790  Obj -25042 Primal inf 28027 (988)
Clp0006I 1900  Obj -25042 Primal inf 30510 (984)
Clp0006I 2013  Obj -25042 Primal inf 25307 (981)
Clp0006I 2111  Obj -25042 Primal inf 34664 (982)
Clp0006I 2225  Obj -25042 Primal inf 41397 (983)
Clp0006I 2329  Obj -25042 Primal inf 50073 (982)
Clp0006I 2437  Obj -25042 Primal inf 51158 (982)
Clp0006I 2533  Obj -25042 Primal inf 47615 (984)
Clp0006I 2615  Obj -25042 Primal inf 28549 (986)
Clp0006I 2722  Obj -25042 Primal inf 53926 (982)
Clp0006I 2807  Obj -25042 Primal inf 27812 (984)
Clp0006I 2910  Obj -25042 Primal inf 28234 (982)
Clp0006I 3014  Obj -25042 Primal inf 49318 (978)
Clp0006I 3106  Obj -25042 Primal inf 55128 (970)
Clp0006I 3205  Obj -25042 Primal inf 51560 (972)
Clp0006I 3299  Obj -25042 Primal inf 64678 (974)
Clp0006I 3381  Obj -25042 Primal inf 70411 (975)
Clp0006I 3474  Obj -25042 Primal inf 82596 (970)
Clp0006I 3556  Obj -25042 Primal inf 53178 (969)
Clp0006I 3649  Obj -25042 Primal inf 41134 (965)
Clp0006I 3748  Obj -25042 Primal inf 56405 (965)
Clp0006I 3852  Obj -25042 Primal inf 54547 (965)
Clp0006I 3947  Obj -25042 Primal inf 44073 (961)
Clp0006I 4038  Obj -25042 Primal inf 50978 (958)
Clp0006I 4133  Obj -25042 Primal inf 42982 (955)
Clp0006I 4225  Obj -25042 Primal inf 40407 (965)
Clp0006I 4318  Obj -25042 Primal inf 28758 (962)
Clp0006I 4414  Obj -25042 Primal inf 29763 (960)
Clp0006I 4512  Obj -25042 Primal inf 35898 (955)
Clp0006I 4609  Obj -25042 Primal inf 36257 (956)
Clp0006I 4706  Obj -25042 Primal inf 37004 (952)
Clp0006I 4803  Obj -25042 Primal inf 36278 (943)
Clp0006I 4897  Obj -25042 Primal inf 26405 (928)
Clp0006I 5002  Obj -25042 Primal inf 27181 (927)
Clp0006I 5105  Obj -25042 Primal inf 33972 (931)
Clp0006I 5206  Obj -25042 Primal inf 46207 (928)
Clp0006I 5303  Obj -25042 Primal inf 42980 (920)
Clp0006I 5400  Obj -25042 Primal inf 41481 (924)
Clp0006I 5504  Obj -25042 Primal inf 35667 (920)
Clp0006I 5599  Obj -25042 Primal inf 54947 (915)
Clp0006I 5681  Obj -25042 Primal inf 28249 (913)
Clp0006I 5784  Obj -25042 Primal inf 26705 (909)
Clp0006I 5882  Obj -25042 Primal inf 23001 (909)
Clp0006I 5981  Obj -25042 Primal inf 25181 (903)
Clp0006I 6078  Obj -25042 Primal inf 32795 (899)
Clp0006I 6180  Obj -25042 Primal inf 37784 (887)
Clp0006I 6282  Obj -25042 Primal inf 29727 (881)
Clp0006I 6376  Obj -25042 Primal inf 21947 (872)
Clp0006I 6463  Obj -25042 Primal inf 25882 (863)
Clp0006I 6557  Obj -25042 Primal inf 30708 (869)
Clp0006I 6663  Obj -25042 Primal inf 21023 (862)
Clp0006I 6773  Obj -25042 Primal inf 28593 (852)
Clp0006I 6865  Obj -25042 Primal inf 34466 (844)
Clp0006I 6959  Obj -25042 Primal inf 33470 (851)
Clp0006I 7054  Obj -25042 Primal inf 29836 (844)
Clp0006I 7151  Obj -25042 Primal inf 30594 (839)
Clp0006I 7248  Obj -25042 Primal inf 32968 (833)
Clp0006I 7343  Obj -25042 Primal inf 25543 (836)
Clp0006I 7447  Obj -25042 Primal inf 27143 (830)
Clp0006I 7538  Obj -25042 Primal inf 26454 (832)
Clp0006I 7630  Obj -25042 Primal inf 22440 (838)
Clp0006I 7725  Obj -25014 Primal inf 29650 (830)
Clp0006I 7803  Obj -25014 Primal inf 13011 (826)
Clp0006I 7918  Obj -25014 Primal inf 7150.9999 (804)
Clp0006I 8027  Obj -25000 Primal inf 9272.9999 (799)
Clp0006I 8114  Obj -25000 Primal inf 10039 (794)
Clp0006I 8201  Obj -25000 Primal inf 14203 (797)
Clp0006I 8290  Obj -25000 Primal inf 12012 (798)
Clp0006I 8379  Obj -25000 Primal inf 11533 (796)
Clp0006I 8465  Obj -25000 Primal inf 9648.9999 (779)
Clp0006I 8562  Obj -25000 Primal inf 6172.9999 (771)
Clp0006I 8680  Obj -25000 Primal inf 4833.9999 (758)
Clp0006I 8801  Obj -25000 Primal inf 3513.9999 (738)
Clp0006I 8919  Obj -25000 Primal inf 4802.9999 (731)
Clp0006I 9020  Obj -25000 Primal inf 2874.9999 (725)
Clp0006I 9139  Obj -25000 Primal inf 3589.9999 (714)
Clp0006I 9238  Obj -25000 Primal inf 4047.9999 (706)
Clp0006I 9356  Obj -25000 Primal inf 2153.9999 (678)
Clp0006I 9470  Obj -25000 Primal inf 3112.9999 (670)
Clp0006I 9561  Obj -25000 Primal inf 5921.9999 (664)
Clp0006I 9644  Obj -25000 Primal inf 3623.9999 (664)
Clp0006I 9735  Obj -25000 Primal inf 2622.9999 (653)
Clp0006I 9835  Obj -25000 Primal inf 2722.9999 (624)
Clp0006I 9922  Obj -25000 Primal inf 1962.9999 (623)
Clp0006I 10034  Obj -25000 Primal inf 2582.9999 (618)
Clp0006I 10126  Obj -25000 Primal inf 2673.9999 (600)
Clp0006I 10226  Obj -25000 Primal inf 2817.9999 (591)
Clp0006I 10316  Obj -25000 Primal inf 1276.9999 (567)
Clp0006I 10424  Obj -25000 Primal inf 1622.9999 (513)
Clp0006I 10519  Obj -25000 Primal inf 1947.9999 (509)
Clp0006I 10623  Obj -25000 Primal inf 1305 (490)
Clp0006I 10717  Obj -25000 Primal inf 1605 (485)
Clp0006I 10814  Obj -25000 Primal inf 1711 (464)
Clp0006I 10908  Obj -25000 Primal inf 1318 (456)
Clp0006I 11004  Obj -25000 Primal inf 871.99996 (425)
Clp0006I 11125  Obj -25000 Primal inf 728.99996 (406)
Clp0006I 11247  Obj -25000 Primal inf 1596 (364)
Clp0006I 11354  Obj -25000 Primal inf 673.99997 (281)
Clp0006I 11475  Obj -25000 Primal inf 449.99998 (219)
Clp0006I 11593  Obj -25000 Primal inf 431.99998 (174)
Clp0006I 11686  Obj -25000 Primal inf 287.99998 (155)
Clp0006I 11802  Obj -25000 Primal inf 234.99999 (102)
Clp0006I 11907  Obj -25000 Primal inf 263.99999 (86)
Clp0006I 12005  Obj -25000 Primal inf 103.99999 (72)
Clp0006I 12110  Obj -25000 Primal inf 207.99999 (60)
Clp0006I 12198  Obj -25000 Primal inf 158.99999 (55)
Clp0006I 12303  Obj -25000 Primal inf 65.999997 (33)
Clp0006I 12385  Obj -25000
Clp0000I Optimal - objective value -25000
Clp0000I Optimal - objective value -25000
Node 0 depth 0 unsatisfied 0 sum 0 obj -25000 guess -25000 branching on -1
Clp0000I Optimal - objective value -25000
Cbc0004I Integer solution of -25000 found after 0 iterations and 0 nodes (27.10 seconds)
Cbc0001I Search completed - best objective -25000, took 0 iterations and 0 nodes (27.18 seconds)
Cbc0035I Maximum depth 0, 0 variables fixed on reduced cost
Clp0000I Optimal - objective value -25000
Clp0000I Optimal - objective value -25000
x_110 = 1
x_734 = 1
x_1117 = 1
x_1736 = 1
x_2082 = 1
x_2547 = 1
x_3104 = 1
x_3518 = 1
x_4331 = 1
x_4864 = 1
x_5290 = 1
x_5587 = 1
x_6078 = 1
x_6738 = 1
x_7247 = 1
x_7665 = 1
x_8303 = 1
x_8871 = 1
x_9219 = 1
x_9870 = 1
x_10005 = 1
x_10681 = 1
x_11284 = 1
x_11603 = 1
x_12205 = 1
x_12557 = 1
x_13289 = 1
x_13776 = 1
x_14093 = 1
x_14909 = 1
x_15025 = 1
x_15727 = 1
x_16292 = 1
x_16590 = 1
x_17156 = 1
x_17835 = 1
x_18414 = 1
x_18809 = 1
x_19050 = 1
x_19677 = 1
x_20393 = 1
x_20846 = 1
x_21194 = 1
x_21609 = 1
x_22068 = 1
x_22744 = 1
x_23008 = 1
x_23697 = 1
x_24477 = 1
x_24793 = 1
x_25326 = 1
x_25782 = 1
x_26148 = 1
x_26503 = 1
x_27188 = 1
x_27566 = 1
x_28231 = 1
x_28880 = 1
x_29116 = 1
x_29631 = 1
x_30212 = 1
x_30906 = 1
x_31253 = 1
x_31684 = 1
x_32032 = 1
x_32823 = 1
x_33055 = 1
x_33721 = 1
x_34372 = 1
x_34676 = 1
x_35162 = 1
x_35885 = 1
x_36168 = 1
x_36887 = 1
x_37465 = 1
x_37627 = 1
x_38159 = 1
x_38625 = 1
x_39397 = 1
x_39553 = 1
x_40175 = 1
x_40536 = 1
x_41152 = 1
x_41651 = 1
x_42248 = 1
x_42774 = 1
x_43317 = 1
x_43611 = 1
x_44325 = 1
x_44597 = 1
x_45344 = 1
x_45592 = 1
x_46246 = 1
x_46579 = 1
x_47129 = 1
x_47959 = 1
x_48297 = 1
x_48638 = 1
x_49180 = 1
x_49728 = 1
x_50225 = 1
x_50916 = 1
x_51056 = 1
x_51516 = 1
x_52206 = 1
x_52769 = 1
x_53027 = 1
x_53794 = 1
x_54158 = 1
x_54572 = 1
x_55119 = 1
x_55785 = 1
x_56213 = 1
x_56979 = 1
x_57304 = 1
x_57698 = 1
x_58487 = 1
x_58657 = 1
x_59314 = 1
x_59898 = 1
x_60000 = 1
x_60573 = 1
x_61316 = 1
x_61982 = 1
x_62044 = 1
x_62620 = 1
x_63295 = 1
x_63530 = 1
x_64170 = 1
x_64711 = 1
x_65137 = 1
x_65910 = 1
x_66315 = 1
x_66691 = 1
x_67124 = 1
x_67735 = 1
x_68242 = 1
x_68666 = 1
x_69291 = 1
x_69892 = 1
x_70277 = 1
x_70757 = 1
x_71448 = 1
x_71671 = 1
x_72061 = 1
x_72685 = 1
x_73347 = 1
x_73529 = 1
x_74339 = 1
x_74703 = 1
x_75063 = 1
x_75639 = 1
x_76108 = 1
x_76545 = 1
x_77136 = 1
x_77514 = 1
x_78076 = 1
x_78714 = 1
x_79189 = 1
x_79806 = 1
x_80193 = 1
x_80686 = 1
x_81161 = 1
x_81594 = 1
x_82049 = 1
x_82739 = 1
x_83155 = 1
x_83852 = 1
x_84021 = 1
x_84630 = 1
x_85452 = 1
x_85907 = 1
x_86324 = 1
x_86692 = 1
x_87312 = 1
x_87690 = 1
x_88232 = 1
x_88805 = 1
x_89091 = 1
x_89601 = 1
x_90245 = 1
x_90749 = 1
x_91060 = 1
x_91754 = 1
x_92115 = 1
x_92574 = 1
x_93195 = 1
x_93752 = 1
x_94105 = 1
x_94673 = 1
x_95167 = 1
x_95506 = 1
x_96462 = 1
x_96580 = 1
x_97102 = 1
x_97717 = 1
x_98430 = 1
x_98598 = 1
x_99059 = 1
x_99589 = 1
x_100013 = 1
x_100763 = 1
x_101224 = 1
x_101715 = 1
x_102470 = 1
x_102879 = 1
x_103199 = 1
x_103647 = 1
x_104431 = 1
x_104567 = 1
x_105308 = 1
x_105912 = 1
x_106389 = 1
x_106522 = 1
x_107473 = 1
x_107523 = 1
x_108273 = 1
x_108645 = 1
x_109040 = 1
x_109663 = 1
x_110278 = 1
x_110819 = 1
x_111183 = 1
x_111588 = 1
x_112259 = 1
x_112881 = 1
x_113017 = 1
x_113537 = 1
x_114126 = 1
x_114571 = 1
x_115169 = 1
x_115526 = 1
x_116367 = 1
x_116788 = 1
x_117336 = 1
x_117708 = 1
x_118360 = 1
x_118502 = 1
x_119460 = 1
x_119854 = 1
x_120287 = 1
x_120781 = 1
x_121065 = 1
x_121853 = 1
x_122007 = 1
x_122868 = 1
x_123258 = 1
x_123584 = 1
x_124178 = 1
x_124664 = 1
x_125267 = 1
x_125622 = 1
x_126039 = 1
x_126800 = 1
x_127201 = 1
x_127621 = 1
x_128298 = 1
x_128841 = 1
x_129054 = 1
x_129840 = 1
x_130001 = 1
x_130707 = 1
x_131240 = 1
x_131660 = 1
x_132035 = 1
x_132633 = 1
x_133051 = 1
x_133524 = 1
x_134100 = 1
x_134674 = 1
x_135256 = 1
x_135779 = 1
x_136202 = 1
x_136595 = 1
x_137135 = 1
x_137612 = 1
x_138296 = 1
x_138700 = 1
x_139272 = 1
x_139905 = 1
x_140107 = 1
x_140504 = 1
x_141345 = 1
x_141813 = 1
x_142144 = 1
x_142770 = 1
x_143222 = 1
x_143771 = 1
x_144015 = 1
x_144802 = 1
x_145028 = 1
x_145946 = 1
x_146070 = 1
x_146509 = 1
x_147321 = 1
x_147577 = 1
x_148150 = 1
x_148922 = 1
x_149123 = 1
x_149543 = 1
x_150172 = 1
x_150542 = 1
x_151362 = 1
x_151851 = 1
x_152033 = 1
x_152520 = 1
x_153475 = 1
x_153949 = 1
x_154182 = 1
x_154876 = 1
x_155356 = 1
x_155927 = 1
x_156085 = 1
x_156995 = 1
x_157012 = 1
x_157519 = 1
x_158311 = 1
x_158641 = 1
x_159149 = 1
x_159679 = 1
x_160283 = 1
x_160548 = 1
x_161327 = 1
x_161849 = 1
x_162264 = 1
x_162569 = 1
x_163307 = 1
x_163643 = 1
x_164083 = 1
x_164646 = 1
x_165481 = 1
x_165842 = 1
x_166333 = 1
x_166710 = 1
x_167280 = 1
x_167765 = 1
x_168046 = 1
x_168920 = 1
x_169229 = 1
x_169541 = 1
x_170366 = 1
x_170726 = 1
x_171343 = 1
x_171718 = 1
x_172096 = 1
x_172988 = 1
x_173099 = 1
x_173944 = 1
x_174255 = 1
x_174869 = 1
x_175424 = 1
x_175586 = 1
x_176348 = 1
x_176581 = 1
x_177113 = 1
x_177830 = 1
x_178132 = 1
x_178640 = 1
x_179075 = 1
x_179861 = 1
x_180454 = 1
x_180716 = 1
x_181467 = 1
x_181961 = 1
x_182401 = 1
x_182913 = 1
x_183034 = 1
x_183993 = 1
x_184426 = 1
x_184511 = 1
x_185421 = 1
x_185900 = 1
x_186423 = 1
x_186963 = 1
x_187411 = 1
x_187938 = 1
x_188038 = 1
x_188552 = 1
x_189106 = 1
x_189918 = 1
x_190442 = 1
x_190976 = 1
x_191134 = 1
x_191558 = 1
x_192492 = 1
x_192614 = 1
x_193358 = 1
x_193653 = 1
x_194196 = 1
x_194799 = 1
x_195230 = 1
x_195940 = 1
x_196031 = 1
x_196761 = 1
x_197363 = 1
x_197751 = 1
x_198458 = 1
x_198822 = 1
x_199419 = 1
x_199733 = 1
x_200359 = 1
x_200980 = 1
x_201355 = 1
x_201908 = 1
x_202209 = 1
x_202997 = 1
x_203220 = 1
x_203723 = 1
x_204429 = 1
x_204562 = 1
x_205318 = 1
x_205890 = 1
x_206328 = 1
x_206882 = 1
x_207338 = 1
x_207786 = 1
x_208329 = 1
x_208865 = 1
x_209384 = 1
x_209951 = 1
x_210498 = 1
x_210750 = 1
x_211489 = 1
x_211873 = 1
x_212474 = 1
x_212936 = 1
x_213064 = 1
x_213704 = 1
x_214118 = 1
x_214737 = 1
x_215378 = 1
x_215820 = 1
x_216415 = 1
x_216935 = 1
x_217332 = 1
x_217888 = 1
x_218383 = 1
x_218874 = 1
x_219484 = 1
x_219766 = 1
x_220455 = 1
x_220964 = 1
x_221241 = 1
x_221760 = 1
x_222301 = 1
x_222768 = 1
x_223128 = 1
x_223850 = 1
x_224399 = 1
x_224947 = 1
x_225456 = 1
x_225972 = 1
x_226466 = 1
x_226857 = 1
x_227485 = 1
x_227917 = 1
x_228478 = 1
x_228953 = 1
x_229394 = 1
x_229939 = 1
x_230483 = 1
x_230933 = 1
x_231490 = 1
x_231991 = 1
x_232469 = 1
x_232943 = 1
x_233432 = 1
x_233687 = 1
x_234262 = 1
x_234968 = 1
x_235496 = 1
x_235810 = 1
x_236434 = 1
x_236902 = 1
x_237142 = 1
x_237986 = 1
x_238243 = 1
x_238971 = 1
x_239391 = 1
x_239895 = 1
x_240450 = 1
x_240999 = 1
x_241441 = 1
x_241875 = 1
x_242386 = 1
x_242928 = 1
x_243010 = 1
x_243903 = 1
x_244275 = 1
x_244945 = 1
x_245437 = 1
x_245654 = 1
x_246494 = 1
x_246837 = 1
x_247425 = 1
x_247896 = 1
x_248377 = 1
x_248957 = 1
x_249404 = 1
x_249834 = 1
real 0m28,447s user 0m28,217s sys 0m0,196s
